(set-info :smt-lib-version 2.6)
(set-logic QF_S)
(set-info :source |
Generated by: Oliver Markgraf, Hongjian Jiang, Daniel Stan, Anthony W. Lin, Philipp Ruemmer
Generated on: 2025-04-08
Application: Using String Solvers to solve RMC problems encoded as CHC over Strings
Target solver: cvc5, OSTRICH, Z3, Z3alpha, Z3-noodler
Time limit: 60.0
Benchmarks are extracted by running HornStr https://arg-git.informatik.uni-kl.de/pub/string-chc-lib on all benchmarks
provided in the repository and gathering the string queries sent to the string solvers.
|)
(set-info :license "https://creativecommons.org/licenses/by/4.0/")
(set-info :category "industrial")
(set-info :status unknown)
(declare-fun varout () String)
(assert (let ((a!1 (re.* (re.union (re.union (str.to_re "b") (str.to_re "n"))
                           (str.to_re "r")))))
  (str.in_re varout a!1)))
(declare-fun varin () String)
(assert (let ((a!1 (re.* (re.union (re.union (str.to_re "b") (str.to_re "n"))
                           (str.to_re "r")))))
  (str.in_re varin a!1)))
(declare-fun X () String)
(declare-fun A () String)
(declare-fun B () String)
(declare-fun C () String)
(declare-fun Y () String)
(declare-fun isin () Bool)
(declare-fun isout () Bool)
(assert (let ((a!1 (and true
                (= X (str.++ A "nb" B "rn" C))
                (= Y (str.++ A "bn" B "nr" C))
                (str.in_re A (re.* (str.to_re "n")))
                (str.in_re B (re.* (str.to_re "n")))
                (str.in_re C (re.* (str.to_re "n")))
                (= X varin)
                isin
                (= Y varout)
                isout)))
  (or a!1)))
(assert (let ((a!1 (re.union (re.union (str.to_re "n") (str.to_re "r"))
                     (re.++ (str.to_re "b")
                            (re.union (str.to_re "b") (str.to_re "r")))))
      (a!2 (re.union (str.to_re "")
                     (re.++ (str.to_re "r") (re.* (str.to_re "r")))))
      (a!8 (re.++ (str.to_re "r")
                  (re.++ (re.* (str.to_re "r")) (str.to_re "b"))))
      (a!16 (re.++ (str.to_re "r")
                   (re.++ (re.* (str.to_re "r")) (str.to_re "n"))))
      (a!32 (re.++ (str.to_re "n")
                   (re.++ (re.* (str.to_re "n")) (str.to_re "r")))))
(let ((a!3 (re.++ a!1 (re.++ (re.* (str.to_re "r")) a!2)))
      (a!4 (re.++ (str.to_re "b") (re.++ (re.* (str.to_re "r")) a!2)))
      (a!9 (re.++ a!1
                  (re.++ (re.* (str.to_re "r")) (re.union (str.to_re "b") a!8))))
      (a!10 (re.++ (str.to_re "b")
                   (re.++ (re.* (str.to_re "r")) (re.union (str.to_re "b") a!8))))
      (a!17 (re.++ a!1
                   (re.++ (re.* (str.to_re "r"))
                          (re.union (str.to_re "n") a!16))))
      (a!18 (re.++ (str.to_re "b")
                   (re.++ (re.* (str.to_re "r"))
                          (re.union (str.to_re "n") a!16))))
      (a!24 (re.++ (re.union (re.union (str.to_re "b") (str.to_re "n"))
                             (str.to_re "r"))
                   (re.++ (re.* (str.to_re "r"))
                          (re.union (str.to_re "n") a!16))))
      (a!25 (re.++ (re.union (re.union (str.to_re "b") (str.to_re "n"))
                             (str.to_re "r"))
                   (re.++ (re.* (str.to_re "r")) (re.union (str.to_re "b") a!8))))
      (a!26 (re.++ (re.union (re.union (str.to_re "b") (str.to_re "n"))
                             (str.to_re "r"))
                   (re.++ (re.* (str.to_re "r")) a!2)))
      (a!33 (re.++ (re.++ (str.to_re "b") (str.to_re "n"))
                   (re.++ (re.* (str.to_re "n"))
                          (re.union (str.to_re "r") a!32))))
      (a!44 (re.++ (re.union (str.to_re "b") (str.to_re "r"))
                   (re.++ (re.* (str.to_re "r")) (re.union (str.to_re "b") a!8))))
      (a!45 (re.++ (re.union (str.to_re "b") (str.to_re "r"))
                   (re.++ (re.* (str.to_re "r"))
                          (re.union (str.to_re "n") a!16))))
      (a!48 (re.++ (re.union (str.to_re "b") (str.to_re "r"))
                   (re.++ (re.* (str.to_re "r")) a!2))))
(let ((a!5 (re.++ (str.to_re "n")
                  (re.++ (re.* (str.to_re "n")) (re.union (str.to_re "") a!4))))
      (a!11 (re.++ (str.to_re "n") (re.++ (re.* (str.to_re "n")) a!10)))
      (a!13 (re.++ (re.* (re.union (str.to_re "n") a!10))
                   (re.union (str.to_re "") a!4)))
      (a!19 (re.++ (str.to_re "n") (re.++ (re.* (str.to_re "n")) a!18)))
      (a!21 (re.++ (re.* (re.union (str.to_re "n") a!10)) a!18))
      (a!35 (re.++ (re.* (re.union (str.to_re "n") a!10)) (str.to_re "r"))))
(let ((a!6 (re.++ (re.* (str.to_re "n"))
                  (re.union (re.union (str.to_re "") a!4) a!5)))
      (a!12 (re.++ (re.++ (str.to_re "b") (str.to_re "n"))
                   (re.++ (re.* (str.to_re "n")) (re.union a!10 a!11))))
      (a!14 (re.union (re.union (str.to_re "") a!4)
                      (re.++ (re.union (str.to_re "n") a!10) a!13)))
      (a!20 (re.++ (re.++ (str.to_re "b") (str.to_re "n"))
                   (re.++ (re.* (str.to_re "n")) (re.union a!18 a!19))))
      (a!22 (re.union a!18 (re.++ (re.union (str.to_re "n") a!10) a!21)))
      (a!36 (re.union (str.to_re "r")
                      (re.++ (re.union (str.to_re "n") a!10) a!35))))
(let ((a!7 (re.union (re.union (re.union (str.to_re "") (str.to_re "b")) a!3)
                     (re.++ (re.++ (str.to_re "b") (str.to_re "n")) a!6)))
      (a!15 (re.++ (re.* (re.union (str.to_re "n") a!10)) a!14))
      (a!23 (re.++ (re.* (re.union (str.to_re "n") a!10)) a!22))
      (a!37 (re.++ (re.* (re.union (str.to_re "n") a!10)) a!36)))
(let ((a!27 (re.++ (re.* (re.union a!24 (re.++ a!25 a!23)))
                   (re.union (re.union (str.to_re "") a!26) (re.++ a!25 a!15))))
      (a!38 (re.++ (re.* (re.union a!24 (re.++ a!25 a!23))) (re.++ a!25 a!37))))
(let ((a!28 (re.union (re.union (re.union (str.to_re "") a!26)
                                (re.++ a!25 a!15))
                      (re.++ (re.union a!24 (re.++ a!25 a!23)) a!27)))
      (a!39 (re.union (re.++ a!25 a!37)
                      (re.++ (re.union a!24 (re.++ a!25 a!23)) a!38))))
(let ((a!29 (re.++ (re.* (re.union a!24 (re.++ a!25 a!23))) a!28))
      (a!40 (re.++ (re.* (re.union a!24 (re.++ a!25 a!23))) a!39)))
(let ((a!30 (re.++ (re.union (re.union a!17 a!20)
                             (re.++ (re.union a!9 a!12) a!23))
                   a!29))
      (a!34 (re.union (re.union a!26 (re.++ a!25 a!15))
                      (re.++ (re.union a!24 (re.++ a!25 a!23)) a!29)))
      (a!41 (re.++ (re.union (re.union a!17 a!20)
                             (re.++ (re.union a!9 a!12) a!23))
                   a!40))
      (a!42 (re.union (re.++ a!25 a!37)
                      (re.++ (re.union a!24 (re.++ a!25 a!23)) a!40)))
      (a!46 (re.union (re.++ a!44 a!37)
                      (re.++ (re.union a!45 (re.++ a!44 a!23)) a!40)))
      (a!49 (re.union (re.union (re.union (str.to_re "") a!48)
                                (re.++ a!44 a!15))
                      (re.++ (re.union a!45 (re.++ a!44 a!23)) a!29))))
(let ((a!31 (re.union (re.union a!7 (re.++ (re.union a!9 a!12) a!15)) a!30))
      (a!43 (re.union (re.union (re.++ (re.union a!9 a!12) a!37) a!41)
                      (re.++ a!33 a!42)))
      (a!47 (re.* (re.union a!46 (re.++ (str.to_re "n") a!42)))))
(let ((a!50 (re.++ a!47 (re.union a!49 (re.++ (str.to_re "n") a!34)))))
(let ((a!51 (re.++ (re.union a!46 (re.++ (str.to_re "n") a!42)) a!50)))
(let ((a!52 (re.union (re.union a!49 (re.++ (str.to_re "n") a!34)) a!51)))
  (str.in_re varin
             (re.union (re.union a!31 (re.++ a!33 a!34))
                       (re.++ a!43 (re.++ a!47 a!52))))))))))))))))))
(assert (let ((a!1 (re.++ (str.to_re "n")
                  (re.++ (re.* (str.to_re "n")) (str.to_re "r"))))
      (a!3 (re.union (re.union (str.to_re "n") (str.to_re "r"))
                     (re.++ (str.to_re "b")
                            (re.union (str.to_re "b") (str.to_re "r")))))
      (a!4 (re.++ (str.to_re "r")
                  (re.++ (re.* (str.to_re "r")) (str.to_re "b"))))
      (a!12 (re.++ (str.to_re "r")
                   (re.++ (re.* (str.to_re "r")) (str.to_re "n")))))
(let ((a!2 (re.++ (re.++ (str.to_re "b") (str.to_re "n"))
                  (re.++ (re.* (str.to_re "n")) (re.union (str.to_re "r") a!1))))
      (a!5 (re.++ a!3
                  (re.++ (re.* (str.to_re "r")) (re.union (str.to_re "b") a!4))))
      (a!6 (re.++ (str.to_re "b")
                  (re.++ (re.* (str.to_re "r")) (re.union (str.to_re "b") a!4))))
      (a!13 (re.++ a!3
                   (re.++ (re.* (str.to_re "r"))
                          (re.union (str.to_re "n") a!12))))
      (a!14 (re.++ (str.to_re "b")
                   (re.++ (re.* (str.to_re "r"))
                          (re.union (str.to_re "n") a!12))))
      (a!20 (re.++ (re.union (re.union (str.to_re "b") (str.to_re "n"))
                             (str.to_re "r"))
                   (re.++ (re.* (str.to_re "r"))
                          (re.union (str.to_re "n") a!12))))
      (a!21 (re.++ (re.union (re.union (str.to_re "b") (str.to_re "n"))
                             (str.to_re "r"))
                   (re.++ (re.* (str.to_re "r")) (re.union (str.to_re "b") a!4))))
      (a!28 (re.++ (re.union (str.to_re "b") (str.to_re "r"))
                   (re.++ (re.* (str.to_re "r")) (re.union (str.to_re "b") a!4))))
      (a!29 (re.++ (re.union (str.to_re "b") (str.to_re "r"))
                   (re.++ (re.* (str.to_re "r"))
                          (re.union (str.to_re "n") a!12)))))
(let ((a!7 (re.++ (str.to_re "n") (re.++ (re.* (str.to_re "n")) a!6)))
      (a!9 (re.++ (re.* (re.union (str.to_re "n") a!6)) (str.to_re "r")))
      (a!15 (re.++ (str.to_re "n") (re.++ (re.* (str.to_re "n")) a!14)))
      (a!17 (re.++ (re.* (re.union (str.to_re "n") a!6)) a!14)))
(let ((a!8 (re.++ (re.++ (str.to_re "b") (str.to_re "n"))
                  (re.++ (re.* (str.to_re "n")) (re.union a!6 a!7))))
      (a!10 (re.union (str.to_re "r")
                      (re.++ (re.union (str.to_re "n") a!6) a!9)))
      (a!16 (re.++ (re.++ (str.to_re "b") (str.to_re "n"))
                   (re.++ (re.* (str.to_re "n")) (re.union a!14 a!15))))
      (a!18 (re.union a!14 (re.++ (re.union (str.to_re "n") a!6) a!17))))
(let ((a!11 (re.++ (re.* (re.union (str.to_re "n") a!6)) a!10))
      (a!19 (re.++ (re.* (re.union (str.to_re "n") a!6)) a!18)))
(let ((a!22 (re.++ (re.* (re.union a!20 (re.++ a!21 a!19))) (re.++ a!21 a!11))))
(let ((a!23 (re.union (re.++ a!21 a!11)
                      (re.++ (re.union a!20 (re.++ a!21 a!19)) a!22))))
(let ((a!24 (re.++ (re.* (re.union a!20 (re.++ a!21 a!19))) a!23)))
(let ((a!25 (re.++ (re.union (re.union a!13 a!16)
                             (re.++ (re.union a!5 a!8) a!19))
                   a!24))
      (a!26 (re.union (re.++ a!21 a!11)
                      (re.++ (re.union a!20 (re.++ a!21 a!19)) a!24)))
      (a!30 (re.union (re.++ a!28 a!11)
                      (re.++ (re.union a!29 (re.++ a!28 a!19)) a!24))))
(let ((a!27 (re.union (re.union (re.++ (re.union a!5 a!8) a!11) a!25)
                      (re.++ a!2 a!26)))
      (a!31 (re.* (re.union a!30 (re.++ (str.to_re "n") a!26)))))
(let ((a!32 (re.++ (re.union a!30 (re.++ (str.to_re "n") a!26))
                   (re.++ a!31 (str.to_re "n")))))
(let ((a!33 (re.++ a!27 (re.++ a!31 (re.union (str.to_re "n") a!32)))))
  (str.in_re varout (re.union a!2 a!33)))))))))))))))
(check-sat)
(exit)
